Route #1: 24 23 16 57 18 22 14 11 47 20 7 32 12 4 26 10 52 37 42 39 19 29
Route #2: 5 55 30 41 36
Route #3: 3 53 48 15 51 21 44 33 40 43 38 8 31
Route #4: 34 27 25 35 13 9 54 6 56 17 46 49 50 28 45
Route #5: 1 2
Route #6: 
Route #7: 
cost 1421.7589720760852
